48
1 0 14
2 0 23
2 1 15
3 0 3
3 1 7
3 2 6
4 0 18
4 1 13
4 2 3
4 3 15
5 0 9
5 1 3
5 2 8
5 3 10
5 4 4
6 0 1
6 1 20
6 2 5
6 3 5
6 4 14
6 5 23
7 0 22
7 1 22
7 2 11
7 3 17
7 4 3
7 5 16
7 6 3
8 0 5
8 1 12
8 2 5
8 3 20
8 4 14
8 5 13
8 6 6
8 7 1
9 0 20
9 1 23
9 2 17
9 3 9
9 4 2
9 5 14
9 6 14
9 7 6
9 8 6
10 0 13
10 1 3
10 2 1
10 3 2
10 4 10
10 5 4
10 6 18
10 7 5
10 8 13
10 9 19
11 0 4
11 1 4
11 2 3
11 3 7
11 4 3
11 5 8
11 6 15
11 7 9
11 8 22
11 9 9
11 10 5
12 0 4
12 1 8
12 2 19
12 3 18
12 4 9
12 5 5
12 6 17
12 7 20
12 8 11
12 9 11
12 10 15
12 11 21
13 0 22
13 1 5
13 2 10
13 3 21
13 4 1
13 5 1
13 6 3
13 7 3
13 8 10
13 9 14
13 10 19
13 11 15
13 12 20
14 0 5
14 1 1
14 2 9
14 3 7
14 4 9
14 5 18
14 6 23
14 7 14
14 8 3
14 9 21
14 10 12
14 11 19
14 12 23
14 13 23
15 0 21
15 1 1
15 2 12
15 3 21
15 4 19
15 5 21
15 6 12
15 7 19
15 8 4
15 9 2
15 10 23
15 11 1
15 12 1
15 13 3
15 14 1
16 0 17
16 1 20
16 2 20
16 3 4
16 4 20
16 5 3
16 6 4
16 7 3
16 8 13
16 9 20
16 10 5
16 11 18
16 12 12
16 13 17
16 14 7
16 15 23
17 0 4
17 1 17
17 2 14
17 3 10
17 4 4
17 5 8
17 6 23
17 7 12
17 8 2
17 9 15
17 10 19
17 11 6
17 12 20
17 13 14
17 14 23
17 15 15
17 16 15
18 0 15
18 1 16
18 2 17
18 3 23
18 4 3
18 5 9
18 6 8
18 7 17
18 8 2
18 9 11
18 10 17
18 11 17
18 12 1
18 13 15
18 14 6
18 15 6
18 16 7
18 17 18
19 0 2
19 1 6
19 2 17
19 3 16
19 4 1
19 5 6
19 6 13
19 7 17
19 8 9
19 9 10
19 10 8
19 11 4
19 12 4
19 13 19
19 14 6
19 15 14
19 16 6
19 17 10
19 18 6
20 0 9
20 1 5
20 2 9
20 3 20
20 4 8
20 5 20
20 6 8
20 7 14
20 8 20
20 9 2
20 10 19
20 11 4
20 12 16
20 13 17
20 14 19
20 15 1
20 16 4
20 17 12
20 18 10
20 19 8
21 0 14
21 1 1
21 2 2
21 3 18
21 4 11
21 5 9
21 6 3
21 7 15
21 8 18
21 9 7
21 10 20
21 11 8
21 12 20
21 13 9
21 14 14
21 15 22
21 16 10
21 17 3
21 18 1
21 19 20
21 20 13
22 0 16
22 1 3
22 2 22
22 3 19
22 4 13
22 5 3
22 6 11
22 7 7
22 8 15
22 9 20
22 10 2
22 11 6
22 12 18
22 13 3
22 14 17
22 15 21
22 16 17
22 17 3
22 18 5
22 19 6
22 20 1
22 21 19
23 0 18
23 1 15
23 2 12
23 3 18
23 4 23
23 5 6
23 6 22
23 7 3
23 8 18
23 9 16
23 10 13
23 11 23
23 12 21
23 13 4
23 14 3
23 15 9
23 16 6
23 17 15
23 18 20
23 19 1
23 20 4
23 21 20
23 22 9
24 0 14
24 1 2
24 2 6
24 3 18
24 4 1
24 5 6
24 6 4
24 7 20
24 8 14
24 9 1
24 10 18
24 11 16
24 12 12
24 13 5
24 14 19
24 15 22
24 16 20
24 17 15
24 18 17
24 19 5
24 20 3
24 21 10
24 22 4
24 23 3
25 0 13
25 1 17
25 2 14
25 3 21
25 4 13
25 5 18
25 6 18
25 7 14
25 8 10
25 9 3
25 10 10
25 11 18
25 12 21
25 13 11
25 14 14
25 15 22
25 16 9
25 17 4
25 18 14
25 19 4
25 20 13
25 21 20
25 22 1
25 23 6
25 24 7
26 0 12
26 1 17
26 2 12
26 3 18
26 4 16
26 5 18
26 6 12
26 7 12
26 8 7
26 9 5
26 10 7
26 11 10
26 12 8
26 13 15
26 14 10
26 15 7
26 16 5
26 17 6
26 18 2
26 19 10
26 20 11
26 21 15
26 22 15
26 23 5
26 24 11
26 25 18
27 0 15
27 1 21
27 2 17
27 3 13
27 4 6
27 5 11
27 6 14
27 7 5
27 8 6
27 9 4
27 10 23
27 11 14
27 12 10
27 13 2
27 14 17
27 15 9
27 16 22
27 17 17
27 18 6
27 19 10
27 20 20
27 21 23
27 22 5
27 23 18
27 24 20
27 25 3
27 26 10
28 0 13
28 1 5
28 2 2
28 3 17
28 4 6
28 5 2
28 6 23
28 7 20
28 8 22
28 9 21
28 10 5
28 11 23
28 12 6
28 13 19
28 14 3
28 15 9
28 16 16
28 17 13
28 18 20
28 19 15
28 20 21
28 21 14
28 22 2
28 23 4
28 24 9
28 25 8
28 26 2
28 27 1
29 0 23
29 1 13
29 2 8
29 3 11
29 4 15
29 5 2
29 6 22
29 7 4
29 8 7
29 9 22
29 10 11
29 11 19
29 12 11
29 13 11
29 14 10
29 15 4
29 16 16
29 17 14
29 18 11
29 19 5
29 20 18
29 21 15
29 22 14
29 23 5
29 24 8
29 25 10
29 26 5
29 27 17
29 28 6
30 0 7
30 1 4
30 2 6
30 3 3
30 4 10
30 5 5
30 6 6
30 7 6
30 8 17
30 9 16
30 10 13
30 11 14
30 12 23
30 13 7
30 14 9
30 15 11
30 16 21
30 17 22
30 18 8
30 19 20
30 20 12
30 21 19
30 22 15
30 23 8
30 24 3
30 25 21
30 26 15
30 27 7
30 28 14
30 29 10
31 0 2
31 1 3
31 2 13
31 3 19
31 4 12
31 5 11
31 6 21
31 7 20
31 8 13
31 9 2
31 10 21
31 11 5
31 12 23
31 13 8
31 14 15
31 15 23
31 16 23
31 17 3
31 18 11
31 19 14
31 20 7
31 21 19
31 22 13
31 23 15
31 24 4
31 25 8
31 26 12
31 27 11
31 28 13
31 29 4
31 30 17
32 0 8
32 1 4
32 2 10
32 3 4
32 4 17
32 5 5
32 6 15
32 7 10
32 8 6
32 9 18
32 10 19
32 11 7
32 12 10
32 13 10
32 14 1
32 15 13
32 16 7
32 17 12
32 18 11
32 19 3
32 20 7
32 21 14
32 22 8
32 23 10
32 24 10
32 25 5
32 26 13
32 27 1
32 28 23
32 29 18
32 30 8
32 31 8
33 0 22
33 1 14
33 2 6
33 3 13
33 4 12
33 5 19
33 6 8
33 7 18
33 8 7
33 9 10
33 10 13
33 11 1
33 12 10
33 13 2
33 14 16
33 15 3
33 16 12
33 17 7
33 18 15
33 19 8
33 20 2
33 21 9
33 22 23
33 23 20
33 24 13
33 25 11
33 26 14
33 27 4
33 28 8
33 29 14
33 30 8
33 31 14
33 32 19
34 0 21
34 1 1
34 2 10
34 3 1
34 4 16
34 5 13
34 6 16
34 7 20
34 8 15
34 9 13
34 10 7
34 11 8
34 12 1
34 13 21
34 14 2
34 15 11
34 16 6
34 17 19
34 18 8
34 19 22
34 20 16
34 21 22
34 22 8
34 23 10
34 24 17
34 25 16
34 26 2
34 27 10
34 28 12
34 29 12
34 30 17
34 31 22
34 32 8
34 33 19
35 0 1
35 1 3
35 2 6
35 3 16
35 4 6
35 5 20
35 6 20
35 7 8
35 8 17
35 9 9
35 10 19
35 11 18
35 12 1
35 13 9
35 14 1
35 15 3
35 16 18
35 17 4
35 18 5
35 19 9
35 20 14
35 21 11
35 22 4
35 23 21
35 24 7
35 25 9
35 26 17
35 27 9
35 28 12
35 29 21
35 30 2
35 31 4
35 32 17
35 33 21
35 34 22
36 0 6
36 1 14
36 2 7
36 3 4
36 4 20
36 5 1
36 6 23
36 7 19
36 8 21
36 9 20
36 10 3
36 11 13
36 12 20
36 13 5
36 14 5
36 15 12
36 16 3
36 17 2
36 18 3
36 19 22
36 20 5
36 21 3
36 22 9
36 23 11
36 24 14
36 25 21
36 26 19
36 27 2
36 28 6
36 29 16
36 30 14
36 31 8
36 32 7
36 33 9
36 34 2
36 35 21
37 0 6
37 1 12
37 2 19
37 3 22
37 4 15
37 5 9
37 6 2
37 7 19
37 8 7
37 9 16
37 10 15
37 11 21
37 12 23
37 13 12
37 14 22
37 15 18
37 16 9
37 17 4
37 18 1
37 19 20
37 20 19
37 21 11
37 22 8
37 23 8
37 24 20
37 25 5
37 26 17
37 27 23
37 28 2
37 29 7
37 30 8
37 31 8
37 32 6
37 33 12
37 34 15
37 35 23
37 36 20
38 0 20
38 1 5
38 2 2
38 3 1
38 4 5
38 5 7
38 6 18
38 7 16
38 8 9
38 9 14
38 10 10
38 11 4
38 12 23
38 13 23
38 14 4
38 15 20
38 16 23
38 17 20
38 18 15
38 19 12
38 20 10
38 21 1
38 22 17
38 23 9
38 24 14
38 25 9
38 26 22
38 27 18
38 28 2
38 29 16
38 30 10
38 31 4
38 32 12
38 33 5
38 34 16
38 35 15
38 36 10
38 37 8
39 0 3
39 1 16
39 2 13
39 3 21
39 4 6
39 5 2
39 6 11
39 7 7
39 8 12
39 9 20
39 10 23
39 11 6
39 12 21
39 13 6
39 14 18
39 15 11
39 16 10
39 17 10
39 18 15
39 19 11
39 20 2
39 21 9
39 22 10
39 23 6
39 24 14
39 25 18
39 26 1
39 27 9
39 28 9
39 29 1
39 30 19
39 31 4
39 32 5
39 33 15
39 34 19
39 35 20
39 36 19
39 37 19
39 38 12
40 0 5
40 1 6
40 2 1
40 3 6
40 4 6
40 5 22
40 6 1
40 7 9
40 8 9
40 9 6
40 10 20
40 11 10
40 12 7
40 13 10
40 14 23
40 15 11
40 16 4
40 17 13
40 18 16
40 19 2
40 20 18
40 21 23
40 22 8
40 23 16
40 24 13
40 25 21
40 26 2
40 27 7
40 28 15
40 29 4
40 30 21
40 31 10
40 32 9
40 33 16
40 34 21
40 35 7
40 36 6
40 37 16
40 38 9
40 39 20
41 0 11
41 1 12
41 2 18
41 3 3
41 4 15
41 5 18
41 6 1
41 7 7
41 8 9
41 9 10
41 10 18
41 11 23
41 12 2
41 13 21
41 14 22
41 15 8
41 16 12
41 17 9
41 18 12
41 19 2
41 20 16
41 21 17
41 22 21
41 23 13
41 24 21
41 25 9
41 26 6
41 27 22
41 28 8
41 29 1
41 30 18
41 31 16
41 32 18
41 33 20
41 34 23
41 35 14
41 36 14
41 37 3
41 38 13
41 39 21
41 40 11
42 0 22
42 1 11
42 2 2
42 3 19
42 4 13
42 5 10
42 6 16
42 7 15
42 8 14
42 9 13
42 10 16
42 11 17
42 12 11
42 13 13
42 14 17
42 15 2
42 16 21
42 17 4
42 18 23
42 19 10
42 20 3
42 21 8
42 22 15
42 23 18
42 24 4
42 25 16
42 26 23
42 27 10
42 28 16
42 29 3
42 30 10
42 31 5
42 32 2
42 33 6
42 34 6
42 35 8
42 36 22
42 37 20
42 38 21
42 39 20
42 40 20
42 41 21
43 0 16
43 1 17
43 2 17
43 3 12
43 4 22
43 5 20
43 6 6
43 7 1
43 8 11
43 9 5
43 10 2
43 11 4
43 12 14
43 13 7
43 14 17
43 15 18
43 16 3
43 17 22
43 18 1
43 19 19
43 20 22
43 21 23
43 22 11
43 23 7
43 24 17
43 25 18
43 26 8
43 27 14
43 28 20
43 29 11
43 30 4
43 31 9
43 32 3
43 33 1
43 34 13
43 35 16
43 36 17
43 37 11
43 38 8
43 39 17
43 40 10
43 41 7
43 42 7
44 0 3
44 1 20
44 2 18
44 3 1
44 4 17
44 5 4
44 6 1
44 7 19
44 8 13
44 9 19
44 10 15
44 11 22
44 12 17
44 13 5
44 14 1
44 15 14
44 16 8
44 17 14
44 18 10
44 19 23
44 20 20
44 21 4
44 22 10
44 23 9
44 24 2
44 25 15
44 26 18
44 27 14
44 28 10
44 29 6
44 30 1
44 31 7
44 32 3
44 33 15
44 34 1
44 35 5
44 36 17
44 37 2
44 38 5
44 39 8
44 40 17
44 41 9
44 42 9
44 43 5
45 0 15
45 1 16
45 2 2
45 3 19
45 4 7
45 5 2
45 6 1
45 7 18
45 8 13
45 9 11
45 10 22
45 11 9
45 12 19
45 13 2
45 14 1
45 15 13
45 16 17
45 17 9
45 18 20
45 19 20
45 20 19
45 21 20
45 22 12
45 23 10
45 24 13
45 25 6
45 26 4
45 27 20
45 28 12
45 29 6
45 30 3
45 31 5
45 32 23
45 33 21
45 34 15
45 35 19
45 36 1
45 37 10
45 38 6
45 39 5
45 40 16
45 41 21
45 42 3
45 43 5
45 44 8
46 0 11
46 1 5
46 2 6
46 3 18
46 4 18
46 5 22
46 6 1
46 7 2
46 8 9
46 9 3
46 10 16
46 11 19
46 12 20
46 13 7
46 14 10
46 15 19
46 16 5
46 17 7
46 18 16
46 19 17
46 20 21
46 21 13
46 22 17
46 23 16
46 24 15
46 25 14
46 26 4
46 27 22
46 28 22
46 29 22
46 30 8
46 31 7
46 32 2
46 33 17
46 34 18
46 35 4
46 36 9
46 37 14
46 38 3
46 39 12
46 40 16
46 41 12
46 42 5
46 43 20
46 44 13
46 45 5
47 0 5
47 1 6
47 2 7
47 3 21
47 4 18
47 5 20
47 6 10
47 7 10
47 8 12
47 9 21
47 10 3
47 11 4
47 12 18
47 13 1
47 14 8
47 15 21
47 16 16
47 17 13
47 18 8
47 19 16
47 20 22
47 21 1
47 22 15
47 23 1
47 24 17
47 25 21
47 26 11
47 27 18
47 28 21
47 29 17
47 30 22
47 31 6
47 32 1
47 33 6
47 34 18
47 35 14
47 36 14
47 37 10
47 38 14
47 39 3
47 40 7
47 41 19
47 42 5
47 43 18
47 44 9
47 45 4
47 46 9
